clingo version 5.5.2
Reading from ..._synch_semantic/attractor_for_synch.lp ...
Solving...
SATISFIABLE

TIME LIMIT   : 1
Models       : 3287+
Calls        : 1
Time         : 100.008s (Solving: 99.63s 1st Model: 1.64s Unsat: 0.00s)
CPU Time     : 99.879s
[ Calling Python ]
Pre : False ; Post : True
[ Grounding ]
[ Solving ]
[ Solving ended ]
*** Solutions found: 8; skipped: 3279
Frequencies of attractor sizes:
{2: 8}
